certificates/rado_a15_c272_N29.cnf
c Rad2 upper bound instance: x1 + 15*x2 - x3 = 272, interval [1,29]
p cnf 29 112
1 14 19 0
-1 -14 -19 0
1 20 29 0
-1 -20 -29 0
2 15 19 0
-2 -15 -19 0
1 3 18 0
-1 -3 -18 0
3 16 19 0
-3 -16 -19 0
2 4 18 0
-2 -4 -18 0
4 17 19 0
-4 -17 -19 0
3 5 18 0
-3 -5 -18 0
5 18 19 0
-5 -18 -19 0
4 6 18 0
-4 -6 -18 0
6 19 0
-6 -19 0
5 7 18 0
-5 -7 -18 0
7 19 20 0
-7 -19 -20 0
6 8 18 0
-6 -8 -18 0
8 19 21 0
-8 -19 -21 0
7 9 18 0
-7 -9 -18 0
9 19 22 0
-9 -19 -22 0
8 10 18 0
-8 -10 -18 0
10 19 23 0
-10 -19 -23 0
9 11 18 0
-9 -11 -18 0
11 19 24 0
-11 -19 -24 0
10 12 18 0
-10 -12 -18 0
12 19 25 0
-12 -19 -25 0
11 13 18 0
-11 -13 -18 0
13 19 26 0
-13 -19 -26 0
12 14 18 0
-12 -14 -18 0
14 19 27 0
-14 -19 -27 0
13 15 18 0
-13 -15 -18 0
15 19 28 0
-15 -19 -28 0
14 16 18 0
-14 -16 -18 0
16 19 29 0
-16 -19 -29 0
15 17 18 0
-15 -17 -18 0
1 17 18 0
-1 -17 -18 0
16 18 0
-16 -18 0
2 17 19 0
-2 -17 -19 0
17 18 19 0
-17 -18 -19 0
3 17 20 0
-3 -17 -20 0
18 20 0
-18 -20 0
4 17 21 0
-4 -17 -21 0
18 19 21 0
-18 -19 -21 0
5 17 22 0
-5 -17 -22 0
18 20 22 0
-18 -20 -22 0
6 17 23 0
-6 -17 -23 0
18 21 23 0
-18 -21 -23 0
7 17 24 0
-7 -17 -24 0
18 22 24 0
-18 -22 -24 0
8 17 25 0
-8 -17 -25 0
18 23 25 0
-18 -23 -25 0
9 17 26 0
-9 -17 -26 0
18 24 26 0
-18 -24 -26 0
10 17 27 0
-10 -17 -27 0
18 25 27 0
-18 -25 -27 0
11 17 28 0
-11 -17 -28 0
18 26 28 0
-18 -26 -28 0
12 17 29 0
-12 -17 -29 0
18 27 29 0
-18 -27 -29 0
