certificates/rado_a15_c272_N29.drat
18 -29 0
19 26 -18 0
26 -18 0
d 19 26 -18 0
-19 -29 0
-29 0
19 0
-6 0
18 0
-16 0
-20 0
26 0
-21 0
-5 0
-17 0
1 0
-28 0
-24 0
-13 0
3 0
4 0
22 0
23 0
12 0
0
